(declare-const |tmp':65:73| Int)
(declare-const |havoc:6:18:96| Int)
(declare-const havoc Int)
(declare-const |tmp___2':99:108:113| Int)
(declare-const |havoc:5:17:90| Int)
(declare-const |K:105:106:111| Int)
(declare-const tmp Int)
(declare-const |phi_tmp___1:87:95| Int)
(declare-const |t':64:107:112| Int)
(declare-const |phi_tmp___0:88:94| Int)
(declare-const tmp___0 Int)
(declare-const |phi_t:89:93| Int)
(declare-const tmp___1 Int)
(declare-const |tmp___1':98:109:114| Int)
(declare-const |havoc:8:19:91| Int)
(declare-const |havoc:3:16:63| Int)
(declare-const |K:71:72| Int)
(declare-const |phi_t:85:86:92| Int)
(declare-const |tmp___0':97:110:115| Int)
(declare-const tmp___2 Int)
(declare-const |t':64:74| Int)
(assert (and (<= (+ (- havoc) 1) 0)
               (or (not (and (<= (- |K:71:72|) 0) (<= |K:71:72| 0)))
                     (= (+ (- tmp) |tmp':65:73|) 0))
               (or (not (<= (+ (- |K:71:72|) 1) 0)) (= |tmp':65:73| 0))
               (or (not (<= (- |K:71:72|) 0))
                     (= (+ |t':64:74| (- |K:71:72|)) 0))
               (or (and (= |K:71:72| 0) (= (+ tmp (- |tmp':65:73|)) 0)
                          (= (- |t':64:74|) 0))
                     (and (<= (+ (- |K:71:72|) 1) 0) (<= (+ (- havoc) 2) 0)
                            (= |tmp':65:73| 0)
                            (<= (+ |t':64:74| (- havoc) 1) 0)
                            (<= (+ (- |t':64:74|) 1) 0)))
               (<= (- |K:71:72|) 0) (<= (- |t':64:74|) 0)
               (<= (+ (- havoc) 1) 0) (not (= (+ |t':64:74| (- havoc) 1) 0))
               (not (= |havoc:3:16:63| 0)) (<= (- |t':64:74|) 0)
               (<= (+ |t':64:74| (- havoc) 1) 0)
               (or (not (<= (- |K:105:106:111|) 0))
                     (<= (+ |t':64:107:112| (* -2 |K:105:106:111|)
                              (- |t':64:74|) -1) 0))
               (or (not (<= (- |K:105:106:111|) 0))
                     (<= (+ |t':64:107:112| (* 2 |K:105:106:111|)
                              (- |t':64:74|) (- (* |K:105:106:111| havoc)) -1) 0))
               (or (not (<= (- |K:105:106:111|) 0))
                     (<= (+ (- |t':64:107:112|) |K:105:106:111| |t':64:74| 1) 0))
               (or (and (= |K:105:106:111| 0)
                          (= (+ (- |tmp___2':99:108:113|) tmp___2) 0)
                          (= (+ (- |tmp___1':98:109:114|) tmp___1) 0)
                          (= (+ (- |tmp___0':97:110:115|) tmp___0) 0)
                          (= (+ (- |t':64:107:112|) |t':64:74| 1) 0))
                     (and (<= (+ (- |K:105:106:111|) 1) 0)
                            (<= (+ |t':64:74| (- havoc) 3) 0)
                            (<= (- |t':64:74|) 0)
                            (<= (+ |t':64:107:112| (- havoc) 1) 0)
                            (<= (+ (- |t':64:107:112|) 2) 0)))
               (<= (- |K:105:106:111|) 0) (< (- |t':64:107:112|) 0)
               (<= (+ (- havoc) 1) 0)
               (not (= (+ |t':64:107:112| (- havoc) 1) 0))
               (or (and (not (= |havoc:5:17:90| 0))
                          (or (and (= |havoc:8:19:91| 0)
                                     (= (+ (- |phi_t:85:86:92|)
                                             |t':64:107:112|) 0))
                                (and (not (= |havoc:8:19:91| 0))
                                       (<= (- |t':64:107:112|) 0)
                                       (<= (+ |t':64:107:112| (- havoc) 1) 0)
                                       (not (= (+ |t':64:107:112| (- havoc) 2) 0))
                                       (= (+ (- |phi_t:85:86:92|)
                                               |t':64:107:112| 1) 0)))
                          (= (+ (- |phi_t:89:93|) |phi_t:85:86:92|) 0)
                          (= (+ (- |phi_tmp___0:88:94|) |havoc:8:19:91|) 0)
                          (= (+ (- |phi_tmp___1:87:95|) |tmp___1':98:109:114|) 0))
                     (and (= |havoc:5:17:90| 0) (= |havoc:6:18:96| 0)
                            (= (+ (- |phi_t:89:93|) |t':64:107:112|) 0)
                            (= (+ (- |phi_tmp___0:88:94|)
                                    |tmp___0':97:110:115|) 0)
                            (= (+ |havoc:6:18:96| (- |phi_tmp___1:87:95|)) 0)))
               (<= (- |phi_t:89:93|) 0)
               (not (<= (+ |phi_t:89:93| (- havoc) 1) 0))))
(check-sat)
